data/lp_files/q3/34_3.lp
\ Model foo
\ LP format - for model browsing. Use MPS format to capture full model detail.
Minimize
  z
Subject To
 allocateEach[1]: x[1,1] + x[2,1] = 1
 allocateEach[2]: x[1,2] + x[2,2] = 1
 allocateEach[3]: x[1,3] + x[2,3] = 1
 allocateEach[4]: x[1,4] + x[2,4] = 1
 allocateEach[5]: x[1,5] + x[2,5] = 1
 allocateEach[6]: x[1,6] + x[2,6] = 1
 allocateEach[7]: x[1,7] + x[2,7] = 1
 allocateEach[8]: x[1,8] + x[2,8] = 1
 allocateEach[9]: x[1,9] + x[2,9] = 1
 allocateEach[10]: x[1,10] + x[2,10] = 1
 allocateEach[11]: x[1,11] + x[2,11] = 1
 allocateEach[12]: x[1,12] + x[2,12] = 1
 allocateEach[13]: x[1,13] + x[2,13] = 1
 allocateEach[14]: x[1,14] + x[2,14] = 1
 allocateAllCash: cashProportion[1] + cashProportion[2] = 1
 findWorstP[1,2]: z + 0.0289976946832727 cashProportion[1]
   - 0.0289976946832727 cashProportion[2] + 0.1082628930999986 x[1,1]
   + 0.0460338403096954 x[1,2] + 0.1395224079685665 x[1,3]
   + 0.0176305983674298 x[1,4] + 0.0118745559728002 x[1,5]
   + 0.00897478650447289 x[1,6] + 0.0879355091270244 x[1,7]
   + 0.0880370010584158 x[1,8] + 0.1264009511243856 x[1,9]
   + 0.0706383842484522 x[1,10] + 0.0664917139087443 x[1,11]
   + 0.1100607501703614 x[1,12] + 0.0101781908338287 x[1,13]
   + 0.0789607226225515 x[1,14] - 0.1082628930999986 x[2,1]
   - 0.0460338403096954 x[2,2] - 0.1395224079685665 x[2,3]
   - 0.0176305983674298 x[2,4] - 0.0118745559728002 x[2,5]
   - 0.00897478650447289 x[2,6] - 0.0879355091270244 x[2,7]
   - 0.0880370010584158 x[2,8] - 0.1264009511243856 x[2,9]
   - 0.0706383842484522 x[2,10] - 0.0664917139087443 x[2,11]
   - 0.1100607501703614 x[2,12] - 0.0101781908338287 x[2,13]
   - 0.0789607226225515 x[2,14] >= 0
 findWorstP[2,1]: z - 0.0287968669008812 cashProportion[1]
   + 0.0287968669008812 cashProportion[2] - 0.1234809652709785 x[1,1]
   - 0.0926683176870356 x[1,2] - 0.0478171974889132 x[1,3]
   - 0.125295167885734 x[1,4] - 0.0984852848010136 x[1,5]
   - 0.011633934227956 x[1,6] - 0.0526982664286126 x[1,7]
   - 0.0118067154293613 x[1,8] - 0.0250964695041179 x[1,9]
   - 0.107484305707539 x[1,10] - 0.0512872199504694 x[1,11]
   - 0.1276565109716063 x[1,12] - 0.0397108794563151 x[1,13]
   - 0.0560818982894661 x[1,14] + 0.1234809652709785 x[2,1]
   + 0.0926683176870356 x[2,2] + 0.0478171974889132 x[2,3]
   + 0.125295167885734 x[2,4] + 0.0984852848010136 x[2,5]
   + 0.011633934227956 x[2,6] + 0.0526982664286126 x[2,7]
   + 0.0118067154293613 x[2,8] + 0.0250964695041179 x[2,9]
   + 0.107484305707539 x[2,10] + 0.0512872199504694 x[2,11]
   + 0.1276565109716063 x[2,12] + 0.0397108794563151 x[2,13]
   + 0.0560818982894661 x[2,14] >= 0
Bounds
 z <= 1
 -infinity <= cashProportion[1] <= 1
 -infinity <= cashProportion[2] <= 1
Binaries
 x[1,1] x[1,2] x[1,3] x[1,4] x[1,5] x[1,6] x[1,7] x[1,8] x[1,9] x[1,10]
 x[1,11] x[1,12] x[1,13] x[1,14] x[2,1] x[2,2] x[2,3] x[2,4] x[2,5] x[2,6]
 x[2,7] x[2,8] x[2,9] x[2,10] x[2,11] x[2,12] x[2,13] x[2,14]
End
