data/mps_files/pEFS/34_3.mps
NAME foo
ROWS
 N  OBJ
 E  allocateEach[1]
 E  allocateEach[2]
 E  allocateEach[3]
 E  allocateEach[4]
 E  allocateEach[5]
 E  allocateEach[6]
 E  allocateEach[7]
 E  allocateEach[8]
 E  allocateEach[9]
 E  allocateEach[10]
 E  allocateEach[11]
 E  allocateEach[12]
 E  allocateEach[13]
 E  allocateEach[14]
 E  allocateAllCash
 G  findWorstP[1,2]
 G  findWorstP[2,1]
COLUMNS
    z         OBJ       1
    z         findWorstP[1,2]  1
    z         findWorstP[2,1]  1
    cashProportion[1]  allocateAllCash  1
    cashProportion[1]  findWorstP[1,2]  2.8997694683272679e-02
    cashProportion[1]  findWorstP[2,1]  -2.8796866900881180e-02
    cashProportion[2]  allocateAllCash  1
    cashProportion[2]  findWorstP[1,2]  -2.8997694683272679e-02
    cashProportion[2]  findWorstP[2,1]  2.8796866900881180e-02
    MARKER    'MARKER'                 'INTORG'
    x[1,1]    allocateEach[1]  1
    x[1,1]    findWorstP[1,2]  1.0826289309999855e-01
    x[1,1]    findWorstP[2,1]  -1.2348096527097850e-01
    x[1,2]    allocateEach[2]  1
    x[1,2]    findWorstP[1,2]  4.6033840309695380e-02
    x[1,2]    findWorstP[2,1]  -9.2668317687035623e-02
    x[1,3]    allocateEach[3]  1
    x[1,3]    findWorstP[1,2]  1.3952240796856649e-01
    x[1,3]    findWorstP[2,1]  -0.0478171974889132
    x[1,4]    allocateEach[4]  1
    x[1,4]    findWorstP[1,2]  1.7630598367429789e-02
    x[1,4]    findWorstP[2,1]  -0.125295167885734
    x[1,5]    allocateEach[5]  1
    x[1,5]    findWorstP[1,2]  1.1874555972800162e-02
    x[1,5]    findWorstP[2,1]  -9.8485284801013637e-02
    x[1,6]    allocateEach[6]  1
    x[1,6]    findWorstP[1,2]  8.9747865044728942e-03
    x[1,6]    findWorstP[2,1]  -1.1633934227955996e-02
    x[1,7]    allocateEach[7]  1
    x[1,7]    findWorstP[1,2]  0.0879355091270244
    x[1,7]    findWorstP[2,1]  -5.2698266428612556e-02
    x[1,8]    allocateEach[8]  1
    x[1,8]    findWorstP[1,2]  8.8037001058415845e-02
    x[1,8]    findWorstP[2,1]  -1.1806715429361283e-02
    x[1,9]    allocateEach[9]  1
    x[1,9]    findWorstP[1,2]  1.2640095112438560e-01
    x[1,9]    findWorstP[2,1]  -2.5096469504117948e-02
    x[1,10]   allocateEach[10]  1
    x[1,10]   findWorstP[1,2]  7.0638384248452243e-02
    x[1,10]   findWorstP[2,1]  -1.0748430570753902e-01
    x[1,11]   allocateEach[11]  1
    x[1,11]   findWorstP[1,2]  6.6491713908744254e-02
    x[1,11]   findWorstP[2,1]  -5.1287219950469386e-02
    x[1,12]   allocateEach[12]  1
    x[1,12]   findWorstP[1,2]  1.1006075017036145e-01
    x[1,12]   findWorstP[2,1]  -1.2765651097160627e-01
    x[1,13]   allocateEach[13]  1
    x[1,13]   findWorstP[1,2]  1.0178190833828709e-02
    x[1,13]   findWorstP[2,1]  -3.9710879456315143e-02
    x[1,14]   allocateEach[14]  1
    x[1,14]   findWorstP[1,2]  7.8960722622551507e-02
    x[1,14]   findWorstP[2,1]  -0.0560818982894661
    x[2,1]    allocateEach[1]  1
    x[2,1]    findWorstP[1,2]  -1.0826289309999855e-01
    x[2,1]    findWorstP[2,1]  1.2348096527097850e-01
    x[2,2]    allocateEach[2]  1
    x[2,2]    findWorstP[1,2]  -4.6033840309695380e-02
    x[2,2]    findWorstP[2,1]  9.2668317687035623e-02
    x[2,3]    allocateEach[3]  1
    x[2,3]    findWorstP[1,2]  -1.3952240796856649e-01
    x[2,3]    findWorstP[2,1]  0.0478171974889132
    x[2,4]    allocateEach[4]  1
    x[2,4]    findWorstP[1,2]  -1.7630598367429789e-02
    x[2,4]    findWorstP[2,1]  0.125295167885734
    x[2,5]    allocateEach[5]  1
    x[2,5]    findWorstP[1,2]  -1.1874555972800162e-02
    x[2,5]    findWorstP[2,1]  9.8485284801013637e-02
    x[2,6]    allocateEach[6]  1
    x[2,6]    findWorstP[1,2]  -8.9747865044728942e-03
    x[2,6]    findWorstP[2,1]  1.1633934227955996e-02
    x[2,7]    allocateEach[7]  1
    x[2,7]    findWorstP[1,2]  -0.0879355091270244
    x[2,7]    findWorstP[2,1]  5.2698266428612556e-02
    x[2,8]    allocateEach[8]  1
    x[2,8]    findWorstP[1,2]  -8.8037001058415845e-02
    x[2,8]    findWorstP[2,1]  1.1806715429361283e-02
    x[2,9]    allocateEach[9]  1
    x[2,9]    findWorstP[1,2]  -1.2640095112438560e-01
    x[2,9]    findWorstP[2,1]  2.5096469504117948e-02
    x[2,10]   allocateEach[10]  1
    x[2,10]   findWorstP[1,2]  -7.0638384248452243e-02
    x[2,10]   findWorstP[2,1]  1.0748430570753902e-01
    x[2,11]   allocateEach[11]  1
    x[2,11]   findWorstP[1,2]  -6.6491713908744254e-02
    x[2,11]   findWorstP[2,1]  5.1287219950469386e-02
    x[2,12]   allocateEach[12]  1
    x[2,12]   findWorstP[1,2]  -1.1006075017036145e-01
    x[2,12]   findWorstP[2,1]  1.2765651097160627e-01
    x[2,13]   allocateEach[13]  1
    x[2,13]   findWorstP[1,2]  -1.0178190833828709e-02
    x[2,13]   findWorstP[2,1]  3.9710879456315143e-02
    x[2,14]   allocateEach[14]  1
    x[2,14]   findWorstP[1,2]  -7.8960722622551507e-02
    x[2,14]   findWorstP[2,1]  0.0560818982894661
    MARKER    'MARKER'                 'INTEND'
RHS
    RHS1      allocateEach[1]  1
    RHS1      allocateEach[2]  1
    RHS1      allocateEach[3]  1
    RHS1      allocateEach[4]  1
    RHS1      allocateEach[5]  1
    RHS1      allocateEach[6]  1
    RHS1      allocateEach[7]  1
    RHS1      allocateEach[8]  1
    RHS1      allocateEach[9]  1
    RHS1      allocateEach[10]  1
    RHS1      allocateEach[11]  1
    RHS1      allocateEach[12]  1
    RHS1      allocateEach[13]  1
    RHS1      allocateEach[14]  1
    RHS1      allocateAllCash  1
BOUNDS
 UP BND1      z         1
 MI BND1      cashProportion[1]
 UP BND1      cashProportion[1]  1
 MI BND1      cashProportion[2]
 UP BND1      cashProportion[2]  1
 BV BND1      x[1,1]  
 BV BND1      x[1,2]  
 BV BND1      x[1,3]  
 BV BND1      x[1,4]  
 BV BND1      x[1,5]  
 BV BND1      x[1,6]  
 BV BND1      x[1,7]  
 BV BND1      x[1,8]  
 BV BND1      x[1,9]  
 BV BND1      x[1,10] 
 BV BND1      x[1,11] 
 BV BND1      x[1,12] 
 BV BND1      x[1,13] 
 BV BND1      x[1,14] 
 BV BND1      x[2,1]  
 BV BND1      x[2,2]  
 BV BND1      x[2,3]  
 BV BND1      x[2,4]  
 BV BND1      x[2,5]  
 BV BND1      x[2,6]  
 BV BND1      x[2,7]  
 BV BND1      x[2,8]  
 BV BND1      x[2,9]  
 BV BND1      x[2,10] 
 BV BND1      x[2,11] 
 BV BND1      x[2,12] 
 BV BND1      x[2,13] 
 BV BND1      x[2,14] 
ENDATA
